167 64 31 58 116 91 153 10 192 35 44 77 80 17 68 8 141 71 78 4 134 145 187 20 11 102 142 92 151 157 133 96 184 158 199 94 177 50 135 62 57 75 101 109 198 196 28 189 120 74 131 137 52 12 14 59 155 175 127 164 9 190 89 97 161 174 181 176 39 106 128 69 93 86 113 19 132 180 49 21 23 119 30 139 138 76 163 43 108 166 48 173 24 186 182 169 110 104 152 29 130 147 47 146 55 5 98 114 2 37 87 72 195 112 162 18 46 82 105 111 53 124 129 65 136 188 79 150 170 179 125 100 115 25 144 165 126 56 95 83 66 41 194 156 118 90 85 3 33 51 67 121 22 42 149 103 193 38 36 99 81 60 197 168 171 185 70 172 159 123 61 143 122 27 73 40 26 107 32 54 117 16 7 148 88 183 45 178 15 154 1 34 6 160 13 84 140 191 63 0